3 3 2
20 0 99 2 66 0 40 1 81 2 16 0 83 2 10 1 92 2 70 1 49 0 94 1 37 0 73 1 41 2 19 0 19 2 61 0 14 1 15 0 92 
20 2 40 1 79 0 10 1 75 2 5 0 37 1 24 2 54 0 59 2 31 1 70 0 71 1 28 2 11 1 88 0 79 2 47 1 16 2 16 0 53 
20 1 18 2 80 1 3 2 42 0 96 2 18 1 9 2 37 0 63 1 39 0 46 2 14 1 3 2 39 0 19 2 14 0 98 2 21 0 85 2 71 

-------------
